adpp_gurobi/instances/type1/ngcutfs1_1_adpp.txt
40
2	2
1	1	0	1	37
1	1	0	1	249
1	1	0	1	33
1	1	0	1	20
1	1	0	1	137
1	1	0	1	79
1	1	0	1	395
1	1	0	1	364
1	1	0	1	1
1	1	0	1	273
1	1	0	1	22
1	1	0	1	51
2	1	0	1	384
1	1	0	1	11
1	1	0	1	15
1	1	0	1	12
1	1	0	1	221
1	1	0	1	89
1	1	0	1	324
1	1	0	1	2
1	1	0	1	25
1	1	0	1	7
1	1	0	1	54
1	1	0	1	131
1	1	0	1	249
1	1	0	1	19
1	1	0	1	294
1	1	0	1	176
1	1	0	1	24
1	1	0	1	18
1	1	0	1	262
1	1	0	1	18
1	1	0	1	20
1	1	0	1	513
1	1	0	1	77
1	1	0	1	223
1	1	0	1	318
1	1	0	1	199
1	1	0	1	182
1	1	0	1	168
